db/data/18147324231291430784812201711188022833.z3.out
sat
-------------------
549.923636291
